language Essence 1.3

letting class be function(1 --> 1, 2 --> 2, 3 --> 1, 4 --> 2, 5 --> 2, 6 --> 1, 7 --> 2, 8 --> 2, 9 --> 2)
letting deck_length be 20
letting deck_width be 21
letting length be function(1 --> 5, 2 --> 1, 3 --> 1, 4 --> 1, 5 --> 1, 6 --> 1, 7 --> 1, 8 --> 1, 9 --> 1)
letting n_classes be 2
letting n_containers be 9
letting separation be function({1, 2} --> 19)
letting width be function(1 --> 3, 2 --> 1, 3 --> 3, 4 --> 8, 5 --> 6, 6 --> 5, 7 --> 1, 8 --> 2, 9 --> 1)
